
Gurobi 9.5.2 (win64) logging started Mon Mar 27 20:26:37 2023

Set parameter LogFile to value "2023-03-27_20hr-25min-09sec/Nodes20_Arcs45_LocNodes15/Formulation-2Instance-1.log"
Set parameter TimeLimit to value 600
Set parameter IntFeasTol to value 1e-09
Set parameter DualReductions to value 0
Set parameter NonConvex to value 2
Gurobi Optimizer version 9.5.2 build v9.5.2rc0 (win64)
Thread count: 4 physical cores, 8 logical processors, using up to 8 threads
Optimize a model with 101 rows, 180 columns and 410 nonzeros
Model fingerprint: 0x2fdc4757
Model has 65 quadratic objective terms
Model has 65 SOS constraints
Variable types: 165 continuous, 15 integer (15 binary)
Coefficient statistics:
  Matrix range     [1e-01, 2e+02]
  Objective range  [4e-02, 1e+03]
  QObjective range [2e-01, 8e+00]
  Bounds range     [1e+00, 1e+00]
  RHS range        [4e-02, 1e+03]
Presolve time: 0.00s
Presolved: 101 rows, 180 columns, 410 nonzeros
Presolved model has 65 SOS constraint(s)
Presolved model has 65 quadratic objective terms
Variable types: 165 continuous, 15 integer (15 binary)

Root relaxation: objective 1.425521e+05, 227 iterations, 0.00 seconds (0.00 work units)

    Nodes    |    Current Node    |     Objective Bounds      |     Work
 Expl Unexpl |  Obj  Depth IntInf | Incumbent    BestBd   Gap | It/Node Time

     0     0 142552.072    0    6          - 142552.072      -     -    0s
H    0     0                    129102.10611 142552.072  10.4%     -    0s
H    0     0                    140420.95495 142552.072  1.52%     -    0s
H    0     0                    140778.97747 142552.072  1.26%     -    0s
     0     0 142421.106    0    6 140778.977 142421.106  1.17%     -    0s
H    0     0                    141906.61400 142421.106  0.36%     -    0s
H    0     0                    141911.03832 142421.106  0.36%     -    0s
     0     0 142368.068    0   33 141911.038 142368.068  0.32%     -    0s
     0     0 142085.863    0   30 141911.038 142085.863  0.12%     -    0s
     0     0 142075.969    0   31 141911.038 142075.969  0.12%     -    0s
H    0     0                    142070.13812 142075.969  0.00%     -    0s

Cutting planes:
  Cover: 7
  Implied bound: 13
  Clique: 2
  MIR: 17
  Flow cover: 29
  Relax-and-lift: 4

Explored 1 nodes (522 simplex iterations) in 0.12 seconds (0.03 work units)
Thread count was 8 (of 8 available processors)

Solution count 7: 142070 141911 140779 ... 129102

Optimal solution found (tolerance 1.00e-04)
Best objective 1.420701381243e+05, best bound 1.420701381243e+05, gap 0.0000%

User-callback calls 208, time in user-callback 0.00 sec
